
Gurobi 9.1.2 (linux64, gurobi_cl) logging started Fri Jul 30 13:54:31 2021

Using license file /opt/gurobi/gurobi.lic
Set parameter TimeLimit to value 600
Set parameter Heuristics to value 0.1
Set parameter LogFile to value 912-Heuristics0.1-glass4-2.log
Set parameter Seed to value 2

Gurobi Optimizer version 9.1.2 build v9.1.2rc0 (linux64)
Copyright (c) 2021, Gurobi Optimization, LLC

Read MPS format model from file /nfs/models/mip/glass4.mps.bz2
Reading time = 0.00 seconds
glass4: 396 rows, 322 columns, 1815 nonzeros
Thread count: 4 physical cores, 8 logical processors, using up to 8 threads
Optimize a model with 396 rows, 322 columns and 1815 nonzeros
Model fingerprint: 0x0a9d9037
Variable types: 20 continuous, 302 integer (0 binary)
Coefficient statistics:
  Matrix range     [1e+00, 8e+06]
  Objective range  [1e+00, 1e+06]
  Bounds range     [1e+00, 8e+02]
  RHS range        [1e+00, 8e+06]
Presolve removed 6 rows and 6 columns
Presolve time: 0.00s
Presolved: 390 rows, 316 columns, 1803 nonzeros
Variable types: 19 continuous, 297 integer (297 binary)
Found heuristic solution: objective 3.133356e+09

Root relaxation: objective 8.000024e+08, 72 iterations, 0.00 seconds

    Nodes    |    Current Node    |     Objective Bounds      |     Work
 Expl Unexpl |  Obj  Depth IntInf | Incumbent    BestBd   Gap | It/Node Time

     0     0 8.0000e+08    0   72 3.1334e+09 8.0000e+08  74.5%     -    0s
H    0     0                    2.150017e+09 8.0000e+08  62.8%     -    0s
H    0     0                    2.100017e+09 8.0000e+08  61.9%     -    0s
     0     0 8.0000e+08    0   72 2.1000e+09 8.0000e+08  61.9%     -    0s
     0     0 8.0000e+08    0   84 2.1000e+09 8.0000e+08  61.9%     -    0s
     0     0 8.0000e+08    0   79 2.1000e+09 8.0000e+08  61.9%     -    0s
H    0     0                    2.000018e+09 8.0000e+08  60.0%     -    0s
     0     2 8.0000e+08    0   78 2.0000e+09 8.0000e+08  60.0%     -    0s
*  471   690             106    1.966685e+09 8.0000e+08  59.3%   6.6    0s
H  745   809                    1.900018e+09 8.0000e+08  57.9%   6.2    0s
H  823   809                    1.900018e+09 8.0000e+08  57.9%   6.5    0s
H  932   825                    1.800016e+09 8.0000e+08  55.6%   6.7    0s
H 1104   879                    1.740013e+09 8.0000e+08  54.0%   6.8    0s
H 1106   836                    1.700013e+09 8.0000e+08  52.9%   6.8    0s
H 1171   852                    1.690014e+09 8.0000e+08  52.7%   6.7    0s
H 1226   835                    1.683348e+09 8.0000e+08  52.5%   6.5    0s
H 1227   798                    1.675014e+09 8.0000e+08  52.2%   6.5    0s
H 1228   761                    1.600013e+09 8.0000e+08  50.0%   6.5    0s
H 1230   726                    1.540014e+09 8.0000e+08  48.1%   6.5    0s
H 1256   691                    1.500014e+09 8.0000e+08  46.7%   6.5    0s
H 1702   875                    1.500013e+09 8.0000e+08  46.7%   6.0    1s
H10655  5591                    1.500013e+09 8.0000e+08  46.7%   4.1    2s
 24363 11453 infeasible   62      1.5000e+09 8.0000e+08  46.7%   4.5    5s
 29914 13676 1.1500e+09   86   99 1.5000e+09 8.5628e+08  42.9%   4.8   10s
H30546 13302                    1.500013e+09 9.0001e+08  40.0%   5.2   14s
H30572 12744                    1.500013e+09 9.0001e+08  40.0%   5.2   14s
H30760 12057                    1.475013e+09 9.0001e+08  39.0%   5.3   14s
 31346 12123 1.0333e+09   86   45 1.4750e+09 9.0001e+08  39.0%   5.5   15s
 62058 14216 infeasible   74      1.4750e+09 1.0000e+09  32.2%   7.2   20s
*102865 23836             112    1.466680e+09 1.1000e+09  25.0%   7.1   22s
 137942 31868 infeasible   86      1.4667e+09 1.1333e+09  22.7%   6.7   25s
H176552 31251                    1.400013e+09 1.2000e+09  14.3%   6.4   27s
 223937 41723 1.2000e+09   96   22 1.4000e+09 1.2000e+09  14.3%   6.3   30s
H298481  5028                    1.200013e+09 1.2000e+09  0.00%   5.8   33s

Cutting planes:
  Gomory: 11
  Cover: 1
  Implied bound: 19
  Projected implied bound: 2
  MIR: 17
  Flow cover: 28
  RLT: 2
  Relax-and-lift: 14

Explored 298497 nodes (1723809 simplex iterations) in 33.97 seconds
Thread count was 8 (of 8 available processors)

Solution count 10: 1.20001e+09 1.40001e+09 1.46668e+09 ... 1.60001e+09

Optimal solution found (tolerance 1.00e-04)
Best objective 1.200012600000e+09, best bound 1.200009700000e+09, gap 0.0002%
